c Random generated cnf formula, satisfiable: false
p cnf 10 50
-5 -8 6 0
1 -6 -9 0
-6 -9 -5 0
10 -8 -6 0
-5 9 3 0
-4 -6 3 0
-1 8 -9 0
-9 -10 -5 0
7 -1 -2 0
-9 5 3 0
-10 -3 -4 0
7 5 -6 0
2 -4 -9 0
1 -7 -9 0
-2 -5 -7 0
5 6 4 0
9 -4 -8 0
-10 6 -3 0
3 -7 4 0
-4 -8 -6 0
7 3 9 0
8 9 4 0
6 10 -9 0
6 -7 -9 0
-5 -9 -1 0
2 -10 1 0
4 -2 -9 0
-7 -4 -9 0
9 10 4 0
-4 -7 -1 0
-5 -4 8 0
-9 5 -6 0
8 -10 5 0
-8 1 9 0
-7 8 5 0
3 -5 -8 0
-8 -1 -4 0
10 -3 -9 0
7 9 10 0
-6 4 -10 0
-2 9 -3 0
-5 -3 1 0
-7 -6 -9 0
10 2 6 0
10 -4 2 0
-7 5 -3 0
-6 -5 -1 0
-9 -3 -10 0
-6 5 -9 0
10 7 1 0
